; benchmark generated from python API
(set-info :status unknown)
(declare-fun S_5 () Real)
(declare-fun L_1 () Real)
(declare-fun A_5 () Real)
(declare-fun S_4 () Real)
(declare-fun A_4 () Real)
(declare-fun S_1 () Real)
(declare-fun A_1 () Real)
(declare-fun S_2 () Real)
(declare-fun A_2 () Real)
(declare-fun S_3 () Real)
(declare-fun A_3 () Real)
(declare-fun L_0 () Real)
(declare-fun S_0 () Real)
(declare-fun A_0 () Real)
(declare-fun B () Real)
(assert
 (let (($x39 (>= L_0 0.0)))
 (let (($x682 (>= B 5.0)))
 (let ((?x9774 (* (- (/ 1.0 2.0)) B)))
 (let ((?x20578 (* (/ 1.0 2.0) S_5)))
 (let ((?x9458 (* (/ 1.0 2.0) L_1)))
 (let ((?x5951 (* (- (/ 1.0 2.0)) A_1)))
 (let ((?x2311 (* (- (/ 1.0 2.0)) A_3)))
 (let ((?x15643 (* (- (/ 1.0 2.0)) A_4)))
 (let ((?x14274 (* (/ 1.0 3.0) S_0)))
 (let ((?x503 (* (- 1.0) S_5)))
 (let ((?x491 (* (- 1.0) A_2)))
 (let (($x77554 (<= (+ A_4 ?x491 ?x503 B (* (/ 2.0 3.0) S_3) ?x14274) 0.0)))
 (let (($x24699 (<= (+ (* (- 4.0) S_5) (* 5.0 S_3) (* (- 1.0) S_0)) 0.0)))
 (let (($x12153 (<= (+ A_4 (* (- 1.0) A_3) ?x503 B S_3) 0.0)))
 (let (($x1091 (<= (+ A_4 (* (- 1.0) L_1) ?x503) 0.0)))
 (let (($x1077433 (or $x1091 $x12153 $x24699 $x77554 (<= 0.0 (+ ?x15643 ?x2311 A_2 ?x5951 ?x9458 ?x20578 ?x9774)))))
 (let ((?x614 (* (- 1.0) L_1)))
 (let ((?x5195 (* (- 2.0) S_5)))
 (let ((?x3154 (* (- 2.0) A_2)))
 (let ((?x1708 (* 2.0 A_4)))
 (let (($x48312 (<= (+ ?x1708 ?x3154 A_1 ?x5195 B S_3 ?x614) 0.0)))
 (let (($x24821 (<= (+ ?x5195 (* 3.0 S_3) (* (- 1.0) S_2)) 0.0)))
 (let (($x67204 (<= (+ ?x1708 ?x3154 A_1 ?x614 ?x5195 (* 2.0 B) S_3) 0.0)))
 (let (($x24695 (<= (+ (* (- 3.0) S_5) (* 4.0 S_3) (* (- 1.0) S_1)) 0.0)))
 (let (($x32469 (<= (+ (* (- 1.0) A_3) (* 2.0 A_2) (* (- 1.0) A_1)) 0.0)))
 (let (($x32475 (not $x32469)))
 (let (($x455322 (<= 0.0 (+ ?x15643 A_3 (* (- (/ 1.0 2.0)) A_2) ?x9774))))
 (let (($x442296 (<= 0.0 (+ (* (- 1.0) A_1) L_1 (* (/ 1.0 3.0) S_3) (* (/ 2.0 3.0) S_0)))))
 (let (($x450225 (<= (+ (* (- (/ 1.0 4.0)) S_5) (* (/ 1.0 4.0) S_0)) (- 5.0))))
 (let (($x443600 (not (<= (- 5.0) (+ ?x491 A_1)))))
 (let (($x442065 (<= (+ (* (/ 1.0 2.0) A_2) (* (- (/ 1.0 2.0)) L_1) (* (- (/ 1.0 2.0)) S_5)) (- 5.0))))
 (let (($x441897 (<= (+ A_3 ?x614 ?x503) (- 5.0))))
 (let (($x444019 (<= 0.0 (+ ?x3154 (* 3.0 A_1) (* (- 1.0) B) (* (- 1.0) S_0) ?x614))))
 (let (($x444020 (not $x444019)))
 (let (($x440982 (<= (+ ?x503 S_0) (- 20.0))))
 (let ((?x631 (* (- 1.0) B)))
 (let ((?x1126 (* (- 1.0) S_0)))
 (let ((?x1863 (* (- 3.0) L_1)))
 (let ((?x1666 (* 2.0 A_3)))
 (let (($x30538 (<= (+ ?x1666 A_1 ?x1863 ?x5195 ?x1126 ?x631) 0.0)))
 (let ((?x1413 (* 4.0 S_2)))
 (let ((?x11504 (* 3.0 B)))
 (let ((?x24082 (* (- 3.0) S_5)))
 (let ((?x2940 (* (- 3.0) A_2)))
 (let ((?x3153 (* 3.0 A_3)))
 (let (($x89611 (<= (+ (* (- (/ 3.0 2.0)) S_5) (* (/ 5.0 2.0) S_2) ?x1126) 0.0)))
 (let (($x83029 (<= (+ ?x3153 ?x1863 ?x24082 S_2 ?x1126) 0.0)))
 (let (($x644 (<= (+ A_4 ?x491 ?x503 B S_2) 0.0)))
 (let (($x627236 (or $x644 $x1091 $x83029 $x89611 (<= (+ ?x3153 ?x2940 ?x24082 ?x11504 ?x1413 ?x1126) 0.0) $x455322)))
 (let (($x455537 (<= 0.0 (+ (* (- 2.0) A_3) (* 2.0 A_2) (* (- 1.0) A_0) S_2 L_0))))
 (let (($x110393 (<= (+ ?x1666 A_2 (* (- 1.0) A_0) ?x1863 ?x5195 ?x631 L_0) 0.0)))
 (let ((?x1161 (* 3.0 S_2)))
 (let ((?x1119 (* 2.0 B)))
 (let ((?x1138 (* (- 1.0) A_0)))
 (let (($x89708 (<= (+ ?x1138 ?x503 (* 2.0 S_2) L_0) 0.0)))
 (let (($x606012 (or $x644 $x1091 $x89708 (<= (+ ?x1666 ?x3154 ?x1138 ?x5195 ?x1119 ?x1161 L_0) 0.0) $x110393 (not $x455537))))
 (let (($x451043 (<= 0.0 (+ (* (- 1.0) A_3) A_2 ?x20578 (* (- (/ 1.0 2.0)) S_2)))))
 (let (($x40697 (<= (+ (* (- (/ 2.0 3.0)) A_1) (* (/ 2.0 3.0) L_1) (* (- (/ 1.0 3.0)) S_5) S_2) 0.0)))
 (let ((?x9762 (* (/ 1.0 2.0) B)))
 (let ((?x20564 (* (- (/ 1.0 2.0)) S_5)))
 (let ((?x15626 (* (/ 1.0 2.0) A_4)))
 (let (($x18881 (<= (+ ?x15626 ?x2311 ?x5951 ?x9458 ?x20564 ?x9762 S_2) 0.0)))
 (let (($x385 (not (<= 0.0 (+ ?x491 B S_2 L_1)))))
 (let (($x24833 (<= (+ ?x1138 ?x24082 (* 4.0 S_3) L_0) 0.0)))
 (let (($x40695 (<= (+ (* (- (/ 1.0 3.0)) A_1) (* (/ 1.0 3.0) L_1) (* (- (/ 2.0 3.0)) S_5) S_3) 0.0)))
 (let (($x1720 (<= (+ A_1 ?x614 (* (- 1.0) S_2)) 0.0)))
 (let (($x441239 (not (<= 0.0 (+ (* (- 1.0) A_4) A_3 A_1 ?x1138 ?x614 ?x631 L_0)))))
 (let (($x32222 (<= (+ ?x1708 (* (- 2.0) A_3) ?x1138 ?x5195 ?x1119 ?x1161 L_0) 0.0)))
 (let (($x471871 (<= 0.0 (+ (* (- 1.0) A_3) A_2 ?x631 (* (/ 1.0 3.0) S_4) (* (- (/ 1.0 3.0)) S_0)))))
 (let (($x456095 (<= 0.0 (+ (* 2.0 A_2) (* (- 1.0) A_1) ?x614 (* (- 1.0) S_4)))))
 (let (($x438322 (<= 0.0 (+ (* (- 1.0) A_3) A_2 ?x5951 ?x9458 (* (/ 1.0 2.0) S_4) ?x631))))
 (let (($x82939 (<= (+ (* (- 1.0) A_4) L_1 S_5 (* (- (/ 1.0 3.0)) S_4) ?x14274) 0.0)))
 (let (($x15606 (<= (+ (* (- 1.0) A_4) (* (/ 1.0 2.0) A_1) ?x9458 S_5 (* (- (/ 1.0 2.0)) S_4)) 0.0)))
 (let (($x1097 (<= (+ A_3 ?x614 (* (- 1.0) S_4)) 0.0)))
 (let (($x446571 (<= 0.0 (+ ?x491 (* (/ 2.0 3.0) A_1) (* (/ 1.0 3.0) L_1) (* (/ 1.0 3.0) S_5)))))
 (let (($x138491 (<= (+ A_3 ?x491 ?x503 B (* 2.0 S_1) ?x1126) 0.0)))
 (let (($x121597 (<= (+ ?x1708 ?x3154 ?x5195 ?x1119 (* 3.0 S_1) ?x1126) 0.0)))
 (let (($x15158 (<= (+ (* (- (/ 2.0 3.0)) S_5) (* (/ 5.0 3.0) S_1) ?x1126) 0.0)))
 (let (($x501258 (or $x385 $x1091 $x89708 (<= (+ ?x1666 ?x1138 (* (- 2.0) L_1) ?x5195 S_2 L_0) 0.0) $x455322)))
 (let (($x443247 (<= (+ (* (- (/ 1.0 3.0)) S_5) (* (/ 1.0 3.0) S_1)) (- 5.0))))
 (let (($x1103 (<= (+ A_2 ?x614 (* (- 1.0) S_3)) 0.0)))
 (let (($x1087596 (or (not $x1097) $x1091 $x1103 (<= (+ A_3 ?x491 B (* (- 1.0) S_4) S_1) (- 5.0)) $x441897 $x443247)))
 (let (($x65329 (<= (+ A_4 (* (- 1.0) A_3) ?x503 B (* 2.0 S_1) ?x1126) 0.0)))
 (let (($x57853 (<= (+ A_2 A_1 (* (- 2.0) L_1) ?x503 ?x1126 ?x631) 0.0)))
 (let (($x32083 (<= (+ ?x1708 (* (- 2.0) A_3) (* 2.0 A_2) A_1 ?x1863 ?x5195 B ?x1126) 0.0)))
 (let (($x1094632 (or $x1091 $x15158 $x32083 $x57853 $x65329 $x121597 (not (<= 0.0 (+ (* (- 2.0) A_4) ?x1666 S_1 ?x1126))))))
 (let (($x438058 (<= 0.0 (+ (* (- 2.0) A_3) (* 2.0 A_2) A_1 ?x1126 ?x614 ?x631))))
 (let (($x438070 (not $x438058)))
 (let (($x37970 (<= (+ (* (- 1.0) S_4) (* 2.0 S_1) ?x1126) 0.0)))
 (let (($x5598 (<= (+ ?x1666 ?x3154 ?x1119 (* (- 2.0) S_4) (* 3.0 S_1) ?x1126) 0.0)))
 (let (($x195606 (<= (+ (* (- 1.0) A_4) A_3 S_5 ?x631 (* (- 2.0) S_4) S_2) 0.0)))
 (let (($x3360 (<= (+ A_3 ?x491 B (* (- 1.0) S_4) S_2) 0.0)))
 (let (($x14215 (<= (+ (* (- 1.0) A_5) A_3 S_5 (* (- 1.0) S_4)) 0.0)))
 (let ((?x514 (* (- 1.0) S_4)))
 (let ((?x5348 (* (- (/ 1.0 3.0)) B)))
 (let ((?x5474 (* (/ 2.0 3.0) S_5)))
 (let ((?x5339 (* (/ 1.0 3.0) A_3)))
 (let ((?x32001 (* (- (/ 2.0 3.0)) A_5)))
 (let ((?x35291 (* (/ 2.0 3.0) A_4)))
 (let (($x131971 (<= (+ ?x35291 ?x32001 ?x5339 (* (- (/ 1.0 3.0)) A_2) ?x5474 ?x5348 ?x514 ?x14274) 0.0)))
 (let ((?x44335 (* (/ 1.0 4.0) S_0)))
 (let ((?x19096 (* (- (/ 3.0 4.0)) B)))
 (let ((?x20601 (* (/ 3.0 4.0) S_5)))
 (let ((?x19095 (* (- (/ 3.0 4.0)) A_5)))
 (let ((?x55881 (* (/ 3.0 4.0) A_4)))
 (let (($x55992 (<= (+ ?x55881 ?x19095 ?x20601 ?x19096 ?x514 ?x44335) 0.0)))
 (let ((?x3410 (* (- 2.0) S_4)))
 (let ((?x479 (* (- 1.0) A_5)))
 (let (($x12074 (<= (+ A_4 ?x479 A_3 ?x491 A_1 ?x614 S_5 ?x3410) 0.0)))
 (let ((?x8977 (* (- (/ 3.0 2.0)) S_4)))
 (let ((?x5673 (* (- (/ 1.0 2.0)) L_1)))
 (let ((?x9459 (* (/ 1.0 2.0) A_1)))
 (let (($x11574 (<= (+ A_4 ?x479 ?x9459 ?x5673 S_5 ?x631 ?x8977) 0.0)))
 (let (($x11218 (<= (+ A_4 ?x479 A_2 ?x614 S_5 ?x631 ?x3410) 0.0)))
 (let (($x461903 (<= (+ A_4 ?x491 ?x503 B S_1) (- 5.0))))
 (let (($x414495 (not (<= (- 5.0) (+ (* (- 1.0) A_3) A_2)))))
 (let (($x448149 (not (<= 0.0 (+ ?x3154 (* 3.0 S_1) ?x1126 (* 2.0 L_1) ?x1119)))))
 (let (($x105825 (<= (+ ?x1666 (* (- 2.0) L_1) ?x5195 S_1 ?x1126) 0.0)))
 (let (($x64916 (<= (+ A_2 ?x614 ?x503 S_1 ?x1126) 0.0)))
 (let (($x442067 (<= 0.0 (+ (* (- 1.0) A_4) A_3 (* (/ 1.0 3.0) S_5) (* (- (/ 1.0 3.0)) S_1)))))
 (let (($x6203 (<= (+ A_3 A_2 (* (- 1.0) A_1) ?x614 ?x503) 0.0)))
 (let (($x1076465 (or $x6203 $x15158 (<= (+ A_4 (* (- 1.0) A_3) (* (/ 1.0 2.0) A_2) ?x5673 ?x20564) 0.0) $x32475 $x64916 $x442067)))
 (let ((?x44323 (* (/ 3.0 4.0) S_0)))
 (let ((?x536 (* (- 1.0) S_2)))
 (let ((?x19069 (* (- (/ 1.0 4.0)) B)))
 (let ((?x20568 (* (/ 1.0 4.0) S_5)))
 (let ((?x92526 (* (/ 1.0 4.0) A_3)))
 (let ((?x57043 (* (- (/ 1.0 4.0)) A_4)))
 (let (($x444508 (<= 0.0 (+ (* (- 1.0) A_3) A_2 ?x5951 ?x9774 (* (/ 1.0 2.0) S_4) ?x9458))))
 (let (($x91404 (<= (+ (* (- (/ 3.0 4.0)) A_4) (* (/ 3.0 4.0) A_3) ?x20601 ?x19096 ?x514 ?x44335) 0.0)))
 (let (($x34746 (<= (+ (* (- 1.0) A_4) A_3 ?x9459 ?x5673 S_5 ?x631 ?x8977) 0.0)))
 (let (($x15677 (<= (+ (* (- 1.0) A_4) A_3 A_2 ?x614 S_5 ?x631 ?x3410) 0.0)))
 (let (($x4178 (<= (+ A_3 ?x614 ?x514 ?x631) 0.0)))
 (let (($x107025 (<= (+ ?x1708 ?x3154 ?x5195 ?x1119 S_3 S_1) 0.0)))
 (let (($x79358 (<= (+ (* (- 1.0) A_4) A_2 S_5 ?x631 ?x514) 0.0)))
 (let (($x496282 (or $x1097 $x79358 (<= (+ (* (- 1.0) A_4) ?x1666 ?x491 S_5 B ?x3410 S_1) 0.0))))
 (let (($x91425 (<= (+ ?x503 (* 2.0 S_2) (* (- 1.0) S_1)) 0.0)))
 (let (($x32224 (<= (+ ?x1708 (* (- 2.0) A_3) ?x5195 ?x1119 ?x1161 (* (- 1.0) S_1)) 0.0)))
 (let (($x529087 (or $x644 $x1091 $x32224 $x91425 (<= (+ ?x1666 ?x3154 ?x5195 ?x1119 ?x1161 (* (- 1.0) S_1)) 0.0) (<= (+ ?x1666 (* (- 2.0) L_1) ?x5195 S_2 (* (- 1.0) S_1)) 0.0))))
 (let (($x466177 (<= (+ (* (/ 1.0 3.0) A_1) (* (- (/ 1.0 3.0)) L_1) (* (- (/ 1.0 3.0)) S_5)) (- 5.0))))
 (let (($x464443 (<= (+ ?x15626 (* (- (/ 1.0 2.0)) A_2) ?x20564 ?x9762 (* (/ 1.0 2.0) S_0)) (- 5.0))))
 (let (($x446483 (<= (+ A_4 ?x491 A_1 ?x614 ?x503 B) (- 5.0))))
 (let (($x436634 (not (<= 0.0 (+ (* (- 1.0) A_3) L_1 S_3 B)))))
 (let (($x420925 (<= 0.0 (+ ?x2311 A_2 ?x5951 ?x9774))))
 (let ((?x5319 (* (/ 1.0 3.0) S_1)))
 (let ((?x5360 (* (- (/ 2.0 3.0)) B)))
 (let ((?x5351 (* (/ 2.0 3.0) A_3)))
 (let ((?x35275 (* (- (/ 2.0 3.0)) A_4)))
 (let (($x213792 (<= (+ ?x35275 ?x5351 ?x5474 ?x5360 ?x514 ?x5319) 0.0)))
 (let (($x4170 (<= (+ (* 2.0 A_2) (* (- 2.0) L_1) S_5 (* (- 3.0) S_4)) 0.0)))
 (let ((?x1918 (* (/ 1.0 2.0) S_0)))
 (let ((?x14041 (* (- (/ 1.0 2.0)) A_2)))
 (let ((?x483 (* (- 1.0) A_4)))
 (let (($x495650 (or $x1097 $x79358 (<= (+ ?x483 ?x1666 ?x491 A_1 ?x614 S_5 B ?x3410) 0.0) (<= (+ ?x483 (* (/ 3.0 2.0) A_3) ?x14041 S_5 ?x9762 ?x8977 ?x1918) 0.0))))
 (let (($x438016 (<= 0.0 (+ ?x491 S_3 L_1 B))))
 (let ((?x525 (* (- 1.0) S_3)))
 (let ((?x5463 (* (- (/ 4.0 3.0)) B)))
 (let ((?x5359 (* (/ 2.0 3.0) A_2)))
 (let ((?x5358 (* (- (/ 2.0 3.0)) A_3)))
 (let ((?x1382 (* (- 2.0) S_3)))
 (let ((?x1247 (* (- 2.0) B)))
 (let ((?x487 (* (- 1.0) A_3)))
 (let (($x1084995 (or (<= (+ A_4 ?x479 ?x487 A_2 A_1 ?x614 S_5 ?x1247 ?x1382) 0.0) (<= (+ ?x35291 ?x32001 ?x5358 ?x5359 ?x5474 ?x5463 ?x525 ?x14274) 0.0) $x438016)))
 (let ((?x3401 (* (- 3.0) S_4)))
 (let ((?x1287 (* (- 2.0) L_1)))
 (let ((?x1246 (* 2.0 A_1)))
 (let (($x12375 (<= (+ ?x1666 ?x3154 ?x1246 ?x1287 S_5 ?x1119 ?x3401) 0.0)))
 (let (($x9432 (<= (+ A_1 ?x614 S_5 ?x3410) 0.0)))
 (let (($x2628 (<= (+ (* (/ 3.0 5.0) S_5) ?x514 (* (/ 2.0 5.0) S_0)) 0.0)))
 (let (($x1076657 (or $x1097 $x2628 $x4170 $x9432 $x12375 (<= (+ (* (/ 1.0 2.0) A_3) ?x14041 ?x20578 ?x9762 ?x514 ?x1918) 0.0))))
 (let (($x15346 (<= (+ ?x483 A_2 S_5 ?x514) 0.0)))
 (let (($x5591 (<= (+ ?x1666 ?x3154 ?x1119 ?x514 S_1) 0.0)))
 (let (($x9007 (<= (+ A_2 ?x5951 ?x5673 (* (- (/ 1.0 2.0)) S_4) ?x631) 0.0)))
 (let (($x97814 (<= (+ A_4 ?x479 ?x487 L_1 S_5 ?x631 (* (- (/ 1.0 2.0)) S_3) ?x1918) 0.0)))
 (let (($x509622 (or $x1103 (<= (+ A_4 ?x479 ?x487 A_1 S_5 ?x631 ?x525) 0.0) $x97814)))
 (let (($x1069628 (or (not $x1103) $x1091 $x441897 $x442065 $x443247 (<= (+ (* (- (/ 1.0 2.0)) S_3) (* (/ 1.0 2.0) S_1)) (- 5.0)))))
 (let (($x66378 (<= (+ ?x15626 (* (- (/ 1.0 2.0)) A_5) ?x20578 ?x9774 ?x525 ?x1918) 0.0)))
 (let (($x510484 (or $x1103 (<= (+ A_4 ?x479 ?x1246 ?x1287 S_5 ?x631 (* (- 3.0) S_3)) 0.0) $x66378)))
 (let (($x28483 (<= (+ A_4 ?x487 ?x503 S_3) 0.0)))
 (let (($x511082 (or $x28483 (<= (+ ?x487 A_2 ?x1138 ?x5195 ?x631 (* 3.0 S_3) L_0) 0.0))))
 (let (($x533106 (or (<= (+ ?x487 A_2 ?x1246 ?x1287 S_5 ?x631 (* (- 3.0) S_3)) 0.0) (<= (+ ?x2311 (* (/ 1.0 2.0) A_2) ?x20578 ?x9774 ?x525 ?x1918) 0.0) $x438016)))
 (let ((?x9110 (* 2.0 S_5)))
 (let ((?x3141 (* 2.0 A_2)))
 (let ((?x2672 (* (- 2.0) A_5)))
 (let (($x537056 (or $x28483 (<= (+ ?x487 A_2 ?x24082 ?x631 (* 4.0 S_3) ?x1126) 0.0))))
 (let ((?x2949 (* (- 3.0) B)))
 (let ((?x24261 (* 3.0 S_5)))
 (let ((?x3158 (* 3.0 A_2)))
 (let ((?x11301 (* (- 3.0) A_5)))
 (let (($x102123 (<= (+ A_3 ?x1138 ?x614 ?x503 S_1 L_0) 0.0)))
 (let (($x61814 (<= (+ (* (/ 1.0 2.0) A_2) ?x1138 ?x5673 ?x20564 S_1 L_0) 0.0)))
 (let (($x15114 (<= (+ ?x1138 (* (- (/ 1.0 3.0)) S_5) (* (/ 4.0 3.0) S_1) L_0) 0.0)))
 (let (($x523840 (or $x1091 $x15114 $x61814 $x102123 (not $x110393) (not (<= 0.0 (+ ?x487 A_2 ?x1138 B S_1 L_0))))))
 (let (($x65407 (<= (+ A_4 ?x487 A_2 ?x1138 ?x614 ?x503 B S_1 L_0) 0.0)))
 (let (($x1734 (<= (+ A_4 ?x487 ?x491 A_1) 0.0)))
 (let (($x616677 (or $x1734 $x6203 (not (<= (+ A_4 ?x487 A_2 A_1 ?x1138 ?x1287 ?x503 L_0) 0.0)) $x61814 $x65407)))
 (let ((?x5355 (* (/ 2.0 3.0) S_1)))
 (let ((?x5353 (* (/ 1.0 3.0) S_5)))
 (let ((?x35592 (* (- (/ 1.0 3.0)) A_5)))
 (let ((?x35289 (* (/ 1.0 3.0) A_4)))
 (let (($x82384 (<= (+ A_4 ?x479 S_5 ?x631 ?x8977 (* (/ 1.0 2.0) S_1)) 0.0)))
 (let (($x1087785 (or $x1097 $x11218 $x82384 (<= (+ A_4 ?x479 A_3 ?x491 S_5 ?x3410 S_1) 0.0))))
 (let (($x549374 (or $x1103 (<= (+ ?x483 A_1 S_5 ?x525) 0.0) (<= (+ ?x483 L_1 S_5 (* (- (/ 1.0 2.0)) S_3) ?x1918) 0.0))))
 (let (($x62698 (<= (+ ?x1708 (* (- 2.0) A_3) ?x3141 ?x1287 ?x5195 ?x1119 S_1 ?x1126) 0.0)))
 (let (($x82192 (<= (+ ?x483 ?x9459 ?x9458 S_5 (* (- (/ 1.0 2.0)) S_4) ?x9774) 0.0)))
 (let (($x520230 (or $x4178 $x11574 $x12074 (<= (+ ?x5359 ?x5353 ?x514 (* (- (/ 2.0 3.0)) L_1) ?x5360) 0.0) $x55992 $x131971)))
 (let ((?x2007 (* 4.0 L_1)))
 (let ((?x914 (* 3.0 S_0)))
 (let ((?x29628 (* (- 4.0) A_1)))
 (let (($x56 (= L_1 L_0)))
 (let ((?x29491 (* (- (/ 5.0 3.0)) B)))
 (let ((?x36690 (* (- (/ 5.0 3.0)) L_1)))
 (let ((?x5342 (* (- (/ 2.0 3.0)) S_5)))
 (let ((?x29470 (* (/ 5.0 3.0) A_1)))
 (let (($x44933 (<= (+ ?x29470 ?x5342 ?x1126 ?x36690 ?x29491) 0.0)))
 (let (($x32522 (<= (+ A_4 ?x487 ?x1246 ?x503 ?x631 ?x1126 ?x1287) 0.0)))
 (let (($x115709 (<= (+ A_4 ?x491 ?x1138 ?x503 B (* 2.0 S_1) L_0) 0.0)))
 (let (($x551411 (or $x1091 $x15114 $x61814 (<= (+ ?x15626 ?x2311 ?x1138 ?x20564 ?x9762 (* (/ 3.0 2.0) S_1) L_0) 0.0) $x65407 $x115709 (not $x442067))))
 (let (($x543703 (or $x1091 (<= (+ ?x1708 ?x3154 (* 3.0 A_1) ?x5195 ?x631 ?x1126 ?x1863) 0.0) $x30538 $x44933 (<= (+ A_3 ?x491 ?x1246 ?x503 ?x631 ?x1126 ?x1287) 0.0) $x438070)))
 (let (($x540395 (or $x1091 (not (<= (- 5.0) (+ (* (- 1.0) A_1) L_1 S_0))) $x441897 $x446483 $x446571 $x466177)))
 (let (($x118457 (<= (+ ?x487 A_2 ?x5195 ?x631 (* 3.0 S_3) (* (- 1.0) S_1)) 0.0)))
 (let (($x486844 (or $x1097 $x4170 (<= (+ ?x5351 (* (- (/ 2.0 3.0)) A_2) ?x5353 (* (/ 2.0 3.0) B) ?x514 ?x5355) 0.0) (<= (+ ?x20578 ?x514 (* (/ 1.0 2.0) S_1)) 0.0))))
 (let (($x38829 (<= (+ ?x483 L_1 S_5 (* (- (/ 1.0 2.0)) S_4) (* (/ 1.0 2.0) S_1)) 0.0)))
 (let (($x443123 (<= (+ A_4 ?x491 A_1 ?x503 ?x614) (- 5.0))))
 (let (($x45053 (<= (+ (* (/ 1.0 3.0) A_1) (* (- (/ 1.0 3.0)) S_5) (* (- (/ 1.0 3.0)) L_1) ?x5348) (- 5.0))))
 (let (($x138502 (<= (+ (* (/ 1.0 2.0) A_3) ?x14041 ?x1138 ?x20564 ?x9762 (* (/ 3.0 2.0) S_1) L_0) 0.0)))
 (let ((?x13919 (* (/ 2.0 3.0) S_0)))
 (let ((?x5349 (* (/ 1.0 3.0) A_2)))
 (let ((?x5333 (* (- (/ 1.0 3.0)) A_3)))
 (let (($x1083219 (or $x1091 $x1720 (<= (+ A_3 ?x614 (* (- 3.0) S_2) (* 2.0 S_0)) 0.0) $x440982 $x442065 $x443600)))
 (let (($x320444 (or $x28483 (<= (+ ?x487 A_2 ?x503 ?x631 (* 2.0 S_3) ?x536) 0.0))))
 (let ((?x6339 (* (- (/ 3.0 2.0)) L_1)))
 (let ((?x5877 (* (/ 3.0 2.0) A_1)))
 (let ((?x2315 (* (/ 1.0 2.0) A_3)))
 (let (($x111395 (<= (+ ?x2315 ?x14041 ?x5877 ?x1138 ?x20564 ?x631 ?x6339 L_0) 0.0)))
 (let (($x55686 (<= (+ (* (/ 1.0 2.0) A_2) A_1 ?x1138 ?x6339 ?x20564 ?x631 L_0) 0.0)))
 (let ((?x36789 (* (- (/ 4.0 3.0)) L_1)))
 (let ((?x5326 (* (- (/ 1.0 3.0)) S_5)))
 (let ((?x29493 (* (/ 4.0 3.0) A_1)))
 (let (($x44963 (<= (+ ?x29493 ?x1138 ?x5326 ?x36789 ?x5463 L_0) 0.0)))
 (let (($x32516 (<= (+ ?x15626 ?x2311 ?x5877 ?x1138 ?x20564 ?x631 ?x6339 L_0) 0.0)))
 (let (($x32056 (<= (+ A_4 ?x487 A_2 A_1 ?x1138 ?x1287 ?x503 L_0) 0.0)))
 (let (($x30355 (<= (+ A_3 A_1 ?x1138 ?x1287 ?x503 ?x631 L_0) 0.0)))
 (let (($x26718 (<= (+ A_4 ?x491 ?x1246 ?x1138 ?x503 ?x631 ?x1287 L_0) 0.0)))
 (let (($x44917 (<= (+ (* (- (/ 1.0 3.0)) A_1) ?x5342 S_3 (* (/ 1.0 3.0) L_1) (* (/ 1.0 3.0) B)) 0.0)))
 (let (($x453 (<= 0.0 (+ ?x614 L_0))))
 (let (($x44944 (<= (+ (* (- (/ 2.0 3.0)) A_1) ?x5326 S_2 (* (/ 2.0 3.0) L_1) (* (/ 2.0 3.0) B)) 0.0)))
 (let (($x483159 (or $x56 $x644 $x1091 (<= (+ A_3 (* (- 1.0) A_1) ?x503 S_2 B) 0.0) (<= (+ ?x15626 ?x2311 ?x5951 ?x20564 B S_2 ?x9458) 0.0) $x44944 (<= (+ ?x2315 ?x14041 ?x5951 ?x20564 B S_2 ?x9458) 0.0))))
 (let (($x545581 (or $x385 $x1091 (<= (+ A_3 (* (- 1.0) A_1) ?x503 S_2) 0.0) $x40697 $x455322)))
 (let (($x37688 (not (<= (+ ?x491 S_2 L_1 B) 0.0))))
 (let (($x1083100 (or $x644 $x18881 (<= (+ ?x2315 ?x14041 ?x5951 ?x9458 ?x20564 ?x9762 S_2) 0.0) $x37688 $x40697)))
 (let ((?x1766 (* 2.0 S_0)))
 (let ((?x1392 (* (- 2.0) S_2)))
 (let (($x596499 (or $x1720 (<= (+ ?x483 A_3 ?x491 L_1 S_5 ?x631 ?x1392 ?x1766) 0.0))))
 (let (($x29275 (<= (+ A_3 A_1 ?x1287 ?x503 (* (- 1.0) S_1) ?x631) 0.0)))
 (let (($x53625 (<= (+ (* (/ 1.0 2.0) A_2) A_1 ?x6339 ?x20564 (* (- 1.0) S_1) ?x631) 0.0)))
 (let (($x32300 (<= (+ A_4 ?x487 A_2 A_1 ?x1287 ?x503 (* (- 1.0) S_1)) 0.0)))
 (let (($x541935 (or $x1091 (<= (+ A_4 ?x491 ?x1246 ?x503 ?x631 (* (- 1.0) S_1) ?x1287) 0.0) $x29275 $x32300 (<= (+ ?x15626 ?x2311 ?x5877 ?x20564 ?x631 (* (- 1.0) S_1) ?x6339) 0.0) (<= (+ ?x29493 ?x5326 (* (- 1.0) S_1) ?x36789 ?x5463) 0.0) $x53625 (<= (+ ?x2315 ?x14041 ?x5877 ?x20564 ?x631 (* (- 1.0) S_1) ?x6339) 0.0))))
 (let (($x444016 (not (<= 0.0 (+ ?x3154 (* 3.0 A_1) ?x2949 ?x1126 ?x614)))))
 (let (($x1098205 (or $x32522 $x44933 $x57853 $x438058 (<= 0.0 (+ ?x15643 ?x2315 ?x491 ?x9459 ?x20578 ?x9458)))))
 (let (($x71369 (<= (+ ?x483 A_2 (* (- 3.0) A_1) S_5 ?x1119 ?x1766 (* 3.0 L_1)) 0.0)))
 (let ((?x1760 (* 3.0 L_1)))
 (let ((?x1118 (* (- 2.0) A_1)))
 (let (($x75048 (<= (+ ?x15643 (* (/ 1.0 2.0) A_2) ?x9774 (* (/ 1.0 2.0) S_4) ?x536 ?x1918) 0.0)))
 (let (($x444336 (<= 0.0 (+ ?x491 ?x9459 (* (/ 1.0 2.0) S_4) ?x9458 ?x9762))))
 (let (($x33839 (<= (+ A_1 S_5 ?x3410 ?x614 ?x631) 0.0)))
 (let (($x478542 (or $x1103 (<= (+ ?x487 L_1 S_5 ?x525 S_0) 0.0) (<= (+ ?x487 ?x1246 ?x614 S_5 ?x1382) 0.0))))
 (let (($x630559 (or $x56 $x14215 (<= (+ ?x479 A_2 ?x5951 S_5 ?x9774 (* (- (/ 1.0 2.0)) S_4) ?x9458) 0.0))))
 (let (($x555601 (or (<= (+ ?x487 A_2 A_1 ?x614 ?x631 S_4 ?x1382) 0.0) (<= (+ ?x5358 ?x5359 ?x5360 (* (/ 2.0 3.0) S_4) ?x525 ?x14274) 0.0) $x438016)))
 (let (($x32210 (<= (+ (* 3.0 A_4) (* (- 3.0) A_3) ?x24082 ?x11504 ?x1413 ?x1126) 0.0)))
 (let (($x2964 (<= (+ ?x483 ?x1666 ?x491) 0.0)))
 (let (($x1111055 (or $x14215 (<= (+ ?x479 A_2 ?x5951 ?x9458 S_5 ?x631 (* (- (/ 1.0 2.0)) S_4)) 0.0))))
 (let (($x66599 (<= (+ (* (/ 1.0 4.0) A_4) (* (- (/ 1.0 4.0)) A_5) ?x20568 ?x19069 ?x536 ?x44323) 0.0)))
 (let (($x48992 (<= (+ ?x479 A_3 ?x491 (* (- 1.0) A_1) (* 2.0 L_1) S_5 S_0) 0.0)))
 (let (($x559654 (or $x1091 $x12153 (<= (+ ?x14041 ?x9458 ?x20564 S_3) 0.0) (not (<= 0.0 (+ ?x3154 A_1 B S_3 L_1))))))
 (let (($x41514 (<= (+ A_2 A_1 ?x1138 ?x1287 ?x514 ?x631 L_0) 0.0)))
 (let (($x33823 (<= (+ ?x5877 ?x1138 (* (- (/ 1.0 2.0)) S_4) ?x6339 (* (- (/ 3.0 2.0)) B) L_0) 0.0)))
 (let (($x641061 (or (<= (+ A_4 ?x479 ?x487 A_2 S_5 ?x1247 ?x1382 S_1) 0.0) $x438016)))
 (let (($x53463 (<= (+ ?x483 A_3 ?x9459 S_5 (* (- (/ 3.0 2.0)) B) ?x8977 ?x5673) 0.0)))
 (let (($x633198 (or (<= (+ ?x483 A_2 A_1 ?x614 S_5 ?x631 ?x1382) 0.0) (<= (+ ?x35275 ?x5359 ?x5474 ?x5360 ?x525 ?x14274) 0.0) $x438016)))
 (let (($x104751 (<= (+ (* (- (/ 1.0 4.0)) A_3) (* (/ 1.0 4.0) A_2) ?x20568 ?x19069 ?x536 ?x44323) 0.0)))
 (let (($x593133 (or (<= (+ ?x487 A_2 ?x1246 S_5 ?x2949 (* (- 3.0) S_3) ?x1287) 0.0) $x438016)))
 (let (($x573415 (or $x1103 (<= (+ A_4 ?x479 ?x487 L_1 S_5 ?x631 ?x525 S_1) 0.0))))
 (let (($x586951 (or $x1097 (not $x5591) (<= (+ A_3 ?x491 ?x1138 B ?x514 (* 2.0 S_1) L_0) 0.0))))
 (let (($x98805 (<= (+ ?x15643 (* (/ 1.0 2.0) A_2) ?x20578 ?x9774 ?x525 (* (/ 1.0 2.0) S_1)) 0.0)))
 (let (($x35285 (<= (+ (* (- (/ 1.0 3.0)) A_4) ?x5339 ?x5348 (* (/ 1.0 3.0) S_4) ?x536 ?x13919) 0.0)))
 (let (($x76919 (<= (+ ?x2311 (* (/ 1.0 2.0) A_2) ?x9774 (* (/ 1.0 2.0) S_3) ?x536 ?x1918) 0.0)))
 (let (($x9220 (<= (+ (* 3.0 A_1) ?x1863 S_5 (* (- 4.0) S_3)) 0.0)))
 (let (($x467925 (or $x1103 (<= (+ (* (/ 2.0 5.0) S_5) ?x525 (* (/ 3.0 5.0) S_0)) 0.0) $x9220)))
 (let (($x467284 (or $x1103 (<= (+ ?x35275 ?x5351 ?x5360 (* (/ 2.0 3.0) S_4) ?x525 ?x14274) 0.0) (<= (+ ?x483 A_3 A_1 ?x614 ?x631 S_4 ?x1382) 0.0))))
 (let (($x566018 (or $x1103 (<= (+ ?x479 A_3 A_1 ?x614 S_5 ?x631 ?x1382) 0.0) (<= (+ ?x32001 ?x5351 ?x5474 ?x5360 ?x525 ?x14274) 0.0))))
 (let (($x636934 (or $x1720 (<= (+ A_4 ?x479 ?x491 L_1 S_5 ?x631 ?x1392 ?x1766) 0.0))))
 (let (($x99974 (<= (+ A_4 ?x479 ?x487 (* (- 1.0) A_1) (* 2.0 L_1) S_5 S_0) 0.0)))
 (let (($x98820 (<= (+ A_4 ?x479 ?x487 A_2 (* (- 3.0) A_1) S_5 B ?x1766 ?x1760) 0.0)))
 (let (($x432316 (<= (+ A_2 ?x614 ?x514) (- 5.0))))
 (let (($x534293 (or $x1097 $x432316 (<= (+ ?x9459 ?x5673 (* (- (/ 1.0 2.0)) S_4)) (- 5.0)) (<= (+ (* (- (/ 1.0 3.0)) S_4) ?x14274) (- 5.0)))))
 (let (($x466167 (or $x1103 (<= (+ ?x15643 ?x2315 ?x20578 ?x9774 ?x525 ?x1918) 0.0) (<= (+ ?x483 A_3 ?x1246 ?x1287 S_5 ?x631 (* (- 3.0) S_3)) 0.0))))
 (let (($x33829 (<= (+ ?x1246 ?x514 ?x1126 ?x1287 ?x1247) 0.0)))
 (let (($x3412 (<= (+ ?x1666 ?x3154 (* 3.0 A_1) ?x631 ?x3410 ?x1126 ?x1863) 0.0)))
 (let (($x444856 (<= 0.0 (+ ?x491 ?x9459 (* (/ 1.0 2.0) S_4) ?x9458 ?x9774))))
 (let (($x443657 (not (<= 0.0 (+ ?x491 ?x1246 ?x1138 ?x631 ?x614 L_0)))))
 (let (($x1117430 (or $x56 (<= (+ ?x491 (* (- 3.0) A_1) ?x2007 S_5 ?x914 ?x11504) 0.0))))
 (let (($x526978 (or $x56 (<= (+ ?x487 A_2 (* (- 3.0) A_1) ?x1119 S_4 ?x1766 ?x1760) 0.0))))
 (let (($x73290 (<= (+ ?x15643 ?x2315 ?x9774 (* (/ 1.0 2.0) S_4) ?x525 (* (/ 1.0 2.0) S_1)) 0.0)))
 (let (($x443699 (<= 0.0 (+ ?x491 ?x1246 ?x1247 (* (- 1.0) S_1) ?x614))))
 (let (($x443700 (not $x443699)))
 (let (($x602950 (or $x1097 (<= (+ A_2 A_1 ?x1287 ?x514 (* (- 1.0) S_1) ?x631) 0.0) $x443700)))
 (let (($x558389 (or $x1097 $x11218 (<= (+ A_4 ?x479 A_3 ?x491 A_1 S_5 ?x631 ?x3410 ?x614) 0.0) (<= (+ A_4 ?x479 ?x9459 S_5 (* (- (/ 3.0 2.0)) B) ?x8977 ?x5673) 0.0))))
 (let (($x3588 (not $x56)))
 (let (($x584076 (or $x1097 $x3412 $x3588 $x33829 (<= (+ ?x3141 A_1 ?x1287 ?x3410 ?x1126 ?x631 (* (- 1.0) L_0)) 0.0))))
 (let (($x452496 (<= 0.0 (+ ?x483 A_2 (* (- (/ 2.0 3.0)) A_1) (* (/ 2.0 3.0) L_1) ?x5474 ?x631))))
 (let ((?x35856 (+ (* (- 5.0) A_1) S_5 (* 4.0 S_0) (* 5.0 L_1) (* 5.0 B))))
 (let (($x542941 (or $x1103 (<= (+ ?x483 A_3 ?x1246 S_5 ?x2949 (* (- 3.0) S_3) ?x1287) 0.0))))
 (let (($x436557 (not (<= 0.0 (+ ?x487 A_2 A_1 ?x1138 ?x614 ?x631 L_0)))))
 (let (($x625555 (or (<= (+ ?x2311 (* (/ 1.0 2.0) A_2) ?x5951 ?x9458 ?x20564 ?x9774 S_3) 0.0) $x28483)))
 (let (($x1105324 (or $x56 $x28483 (<= (+ ?x2311 (* (/ 1.0 2.0) A_2) ?x5951 ?x20564 S_3 ?x9458) 0.0))))
 (let (($x33833 (<= (+ ?x5877 (* (- (/ 1.0 2.0)) S_4) (* (- 1.0) S_1) ?x6339 (* (- (/ 3.0 2.0)) B)) 0.0)))
 (let (($x630893 (or $x1097 (<= (+ A_3 ?x491 ?x1246 ?x631 ?x514 (* (- 1.0) S_1) ?x1287) 0.0) $x33833 $x443699)))
 (let (($x515514 (or $x56 (<= (+ ?x483 A_2 ?x1118 B S_4 S_0 (* 2.0 L_1)) 0.0))))
 (let (($x32370 (<= (+ A_2 A_1 ?x614 ?x514 (* (- 1.0) S_1) ?x631 (* (- 1.0) L_0)) 0.0)))
 (let ((?x11901 (* (- 4.0) B)))
 (let ((?x24914 (* 4.0 S_5)))
 (let ((?x3151 (* 4.0 A_2)))
 (let ((?x11342 (* (- 4.0) A_5)))
 (let (($x455957 (or $x56 $x1097 $x3360 (<= (+ ?x5951 (* (- (/ 1.0 2.0)) S_4) S_2 ?x9458 ?x9762) 0.0))))
 (let (($x34846 (<= (+ ?x483 A_3 ?x491 (* (- 1.0) A_1) (* 2.0 L_1) S_4 S_0) 0.0)))
 (let (($x5988 (<= (+ ?x487 (* (- 1.0) A_1) (* 2.0 L_1) S_4 S_0 B) 0.0)))
 (let (($x452976 (or $x1103 (<= (+ ?x487 L_1 S_4 (* (- (/ 1.0 2.0)) S_3) ?x1918) 0.0) (<= (+ ?x487 A_1 S_4 ?x525) 0.0))))
 (let (($x1077090 (or (<= (+ A_4 ?x479 ?x487 A_2 A_1 S_5 ?x2949 ?x1382 ?x614) 0.0) $x438016)))
 (let (($x509853 (or $x1720 (<= (+ A_4 ?x479 ?x487 L_1 S_5 ?x631 ?x536 S_0) 0.0))))
 (let (($x451577 (or (<= (+ A_2 ?x1138 ?x614 ?x514 S_1 L_0) 0.0) $x1097 $x5591 (<= (+ ?x1138 (* (- (/ 1.0 2.0)) S_4) (* (/ 3.0 2.0) S_1) L_0) 0.0))))
 (let (($x575911 (or $x1103 (<= (+ A_4 ?x479 ?x1246 S_5 ?x2949 (* (- 3.0) S_3) ?x1287) 0.0))))
 (let (($x450780 (<= (+ ?x20564 (* (/ 1.0 2.0) S_2)) (- 5.0))))
 (let (($x441069 (not (<= (- 5.0) (+ ?x483 A_3)))))
 (let (($x450147 (or $x1103 (<= (+ ?x1246 ?x1287 S_4 (* (- 3.0) S_3)) 0.0) (<= (+ (* (/ 1.0 2.0) S_4) ?x525 ?x1918) 0.0))))
 (let (($x1076104 (or $x1097 (<= (+ A_3 ?x491 ?x1246 ?x1138 ?x631 ?x514 ?x1287 L_0) 0.0) $x33823 $x436557)))
 (let (($x527850 (or $x56 (<= (+ ?x487 A_2 ?x1118 B S_3 S_0 (* 2.0 L_1)) 0.0))))
 (let (($x543880 (or $x1720 (<= (+ ?x479 A_3 ?x491 L_1 S_5 ?x631 ?x536 S_0) 0.0))))
 (let (($x554537 (or $x56 (<= (+ ?x479 A_3 (* (- 3.0) A_1) S_5 ?x1119 ?x1766 ?x1760) 0.0))))
 (let (($x647722 (or $x56 (<= (+ ?x479 A_2 ?x1118 S_5 B S_0 (* 2.0 L_1)) 0.0))))
 (let (($x34844 (<= (+ ?x491 (* (- 1.0) A_1) (* 2.0 L_1) B S_3 S_0) 0.0)))
 (let (($x644144 (or $x56 (<= (+ ?x483 A_3 (* (- 3.0) A_1) ?x1119 S_4 ?x1766 ?x1760) 0.0))))
 (let (($x555772 (or $x1720 (<= (+ ?x483 A_3 ?x491 L_1 ?x631 S_4 ?x536 S_0) 0.0))))
 (let (($x25803 (<= (+ (* (- (/ 1.0 2.0)) A_5) (* (/ 1.0 2.0) A_2) ?x20578 ?x9774 ?x536 ?x1918) 0.0)))
 (let (($x444915 (or $x1103 (<= (+ (* (- (/ 1.0 2.0)) S_3) ?x1918) (- 5.0)) (<= (+ A_1 ?x614 ?x525) (- 5.0)))))
 (let (($x1087 (<= (+ ?x483 (* (- 1.0) A_1) (* 2.0 L_1) S_5 S_0 B) 0.0)))
 (let (($x2743 (<= (+ A_1 ?x525 ?x614 ?x631) (- 5.0))))
 (let (($x630654 (or $x1103 (<= (+ (* 3.0 A_1) S_5 (* (- 4.0) S_3) ?x1863 ?x2949) 0.0))))
 (let (($x128 (>= S_1 S_0)))
 (let (($x131 (>= S_2 S_1)))
 (let (($x134 (>= S_3 S_2)))
 (let (($x137 (>= S_4 S_3)))
 (let (($x140 (>= S_5 S_4)))
 (let (($x142 (>= A_1 A_0)))
 (let (($x143 (>= A_2 A_1)))
 (let (($x144 (>= A_3 A_2)))
 (let (($x145 (>= A_4 A_3)))
 (let (($x146 (>= A_5 A_4)))
 (and $x146 $x145 $x144 $x143 $x142 $x140 $x137 $x134 $x131 $x128 (or $x56 (not $x453)) (or $x56 (<= (+ (* (- 1.0) A_1) L_1 S_1 B) 0.0)) (or $x56 (<= (+ (* (- 1.0) A_1) L_1 S_0 B) (- 5.0))) (<= (+ A_1 ?x614 ?x536 ?x631) 0.0) (or $x1103 (<= (+ ?x1246 ?x1138 ?x525 ?x1287 ?x1247 L_0) 0.0)) (or $x1103 (<= (+ (* 3.0 A_1) ?x1382 ?x1126 ?x1863 ?x2949) 0.0)) (or $x1103 (<= (+ ?x1246 S_4 (* (- 3.0) S_3) ?x1287 ?x1247) 0.0)) $x630654 (or $x1720 (<= (+ ?x536 S_0) (- 5.0))) (or $x1103 (<= (+ ?x487 A_2 ?x631 S_4 ?x1382 S_1) 0.0)) (or $x1720 (<= (+ ?x487 L_1 S_5 ?x1392 ?x1766) 0.0)) (or $x1103 (<= (+ ?x525 S_1) (- 5.0))) (<= (+ ?x479 A_3 S_5 ?x631 ?x514) 0.0) (or $x1103 (<= (+ ?x1246 ?x525 (* (- 1.0) S_1) ?x1287 ?x1247) 0.0)) (or $x1103 (<= (+ ?x1138 ?x525 (* 2.0 S_1) L_0) 0.0)) (or $x1720 (<= (+ ?x487 L_1 S_4 ?x536 S_0) 0.0)) (or $x1720 (<= (+ (* (/ 1.0 3.0) S_3) ?x536 ?x13919) 0.0)) (or $x1097 $x3360 (<= (+ ?x5951 ?x9458 (* (- (/ 1.0 2.0)) S_4) S_2) 0.0)) $x2743 (or $x56 $x1087) (or $x1720 (<= (+ ?x483 L_1 S_5 ?x536 S_0) 0.0)) (or $x1097 $x432316 (<= (+ (* (- (/ 1.0 2.0)) S_4) (* (/ 1.0 2.0) S_1)) (- 5.0))) (or $x1103 (<= (+ ?x20568 ?x525 (* (/ 3.0 4.0) S_1)) 0.0)) (or $x1103 (<= (+ ?x5333 ?x5349 ?x5353 ?x5348 ?x525 ?x5355) 0.0)) (or $x1097 $x4170 $x5591 $x38829) (or $x1720 (<= (+ ?x491 L_1 S_5 (* (- 3.0) S_2) ?x914) 0.0)) $x444915 (<= (+ ?x483 A_2 ?x631 S_4 ?x525) 0.0) (or $x1720 (<= (+ ?x491 L_1 S_4 ?x1392 ?x1766) 0.0)) (or $x56 (<= (+ ?x1118 ?x1119 S_2 S_0 (* 2.0 L_1)) 0.0)) (or $x1720 $x25803) (<= (+ ?x479 A_2 S_5 ?x631 ?x525) 0.0) (or $x1103 (<= (+ ?x483 A_3 A_1 ?x1247 S_4 ?x1382 ?x614) 0.0)) (or $x56 (<= (+ (* (- 3.0) A_1) ?x11504 S_3 ?x1766 ?x1760) 0.0)) (or $x644 $x1091 $x12153 $x24833) (or $x1720 (<= (+ (* (/ 1.0 4.0) S_4) ?x536 ?x44323) 0.0)) (or $x644 $x1091 $x12153 $x24695) $x555772 (or $x1720 (<= (+ ?x491 L_1 S_3 ?x536 S_0) 0.0)) $x644144 (or $x56 $x34844) $x647722 $x554537 $x543880 $x527850 (or $x1091 $x12153 $x24833 $x48312) (or $x644 $x1091 (<= (+ ?x503 S_3) (- 5.0))) $x1076104 (or $x1103 (<= (+ S_4 (* (- 3.0) S_3) (* 2.0 S_1)) 0.0)) $x450147 (or $x644 $x1091 $x441069 $x450780) $x575911 $x451577 $x509853 $x1077090 (or $x1103 (<= (+ ?x1382 (* 3.0 S_1) ?x1126) 0.0)) (or $x1103 (<= (+ ?x487 L_1 S_5 ?x1382 (* 2.0 S_1)) 0.0)) $x452976 (or (<= (+ ?x487 A_2 A_1 ?x1247 S_4 ?x1382 ?x614) 0.0) $x438016) (or $x1097 $x3360 (<= (+ ?x5353 ?x514 (* (/ 2.0 3.0) S_2)) 0.0)) (or $x56 (<= (+ ?x483 A_3 ?x491 ?x1118 ?x1760 S_5 B ?x1766) 0.0)) (or (<= (+ ?x483 A_2 A_1 S_5 ?x1247 ?x1382 ?x614) 0.0) $x438016) (or $x56 (<= (+ ?x29628 S_4 ?x914 ?x2007 (* 4.0 B)) 0.0)) (or $x56 (<= (+ ?x491 ?x1118 ?x1760 S_4 ?x1766 ?x1119) 0.0)) (or $x56 $x5988) (or $x1097 $x3360 (<= (+ ?x3410 ?x1161 (* (- 1.0) S_1)) 0.0)) (or $x1091 $x30355 $x32056 $x32516 $x44963 $x55686 $x443657) (or $x453 $x34846) $x455957 (or $x14215 (<= (+ ?x11342 ?x3151 ?x24914 ?x11901 ?x3401 ?x1126) 0.0)) (or $x1097 $x3588 $x32370 $x443700) (or $x1097 $x3360 (<= (+ A_4 ?x479 S_5 ?x631 ?x3410 S_2) 0.0)) (or $x1091 $x29275 $x32300 $x53625 $x443700) (or $x1103 (<= (+ ?x483 L_1 S_5 ?x525 S_1) 0.0)) $x515514 $x630893 (or $x24833 $x28483) (or $x24695 $x28483) (or $x1091 $x15114 $x30355 $x32056 $x61814 $x442067 $x443657) $x1105324 $x625555 (or $x1091 $x26718 $x30355 $x44963 $x111395 $x436557) $x542941 (or $x1103 (<= (+ ?x479 A_3 A_1 S_5 ?x1247 ?x1382 ?x614) 0.0)) (or $x1103 $x9220 $x66378) (or $x56 (<= ?x35856 0.0)) (or $x56 (<= (+ ?x487 ?x1118 ?x1760 S_5 ?x1766 ?x1119) 0.0)) (or $x1091 $x12153 $x40695 $x77554 $x452496) (or $x1097 (<= (+ ?x3141 ?x1287 ?x3410 S_1 ?x1126) 0.0) $x5591 $x37970) $x584076 $x558389 $x602950 (or $x1103 $x73290) (or $x1720 (<= (+ (* (/ 1.0 5.0) S_5) ?x536 (* (/ 4.0 5.0) S_0)) 0.0)) (or $x1097 $x41514 (not (<= 0.0 (+ ?x491 ?x1246 ?x1138 ?x1247 ?x614 L_0)))) (or $x1103 (<= (+ ?x483 A_1 S_5 ?x525 ?x631) 0.0)) (or $x1097 (<= (+ ?x514 S_2) (- 5.0))) (or $x45053 $x438016 $x443123) (or $x1091 $x12153 $x40695 $x420925 (not $x442296)) $x526978 $x1117430 (or $x1097 $x33823 $x443657 $x444856) (or $x1097 (<= (+ ?x9459 (* (- (/ 1.0 2.0)) S_4) ?x5673 ?x9774) (- 5.0))) (or $x1097 $x33829 $x444020 $x444856) (or $x1097 $x3412 $x33829 $x444336) (or $x1097 (<= (+ ?x3141 A_1 ?x1863 ?x3410 ?x1126 ?x631) 0.0) $x444016) $x466167 (or $x644 $x1091 $x1097 $x432316 $x440982 $x466177) $x534293 (or $x1097 $x3360 (<= (+ ?x3401 ?x1413 ?x1126) 0.0)) (or $x56 (<= (+ A_4 ?x479 ?x29628 S_5 ?x11504 ?x914 ?x2007) 0.0)) (or $x56 (<= (+ ?x487 A_2 ?x29628 S_5 ?x11504 ?x914 ?x2007) 0.0)) (or $x56 $x98820) (or $x56 $x99974) (or $x1091 $x15114 $x30355 $x61814 $x65407 $x115709 $x138502 $x442067) $x636934 (or $x1103 (<= (+ ?x487 ?x1246 ?x614 S_5 ?x1382 ?x1247) 0.0)) $x566018 $x467284 (or $x644 $x1091 $x1097 $x45053) $x467925 (or $x1103 (<= (+ A_4 ?x479 ?x487 A_1 S_5 ?x1247 ?x525) 0.0)) (or $x1720 (<= (+ ?x5333 ?x5349 ?x5348 (* (/ 1.0 3.0) S_4) ?x536 ?x13919) 0.0)) (or $x1720 $x76919) (or $x1720 $x35285) (or $x98805 $x438016) $x586951 $x573415 (or $x1103 (<= (+ ?x479 A_3 S_5 ?x631 ?x1382 S_1) 0.0)) $x593133 (or $x1103 (<= (+ ?x487 A_1 ?x631 S_4 ?x525) 0.0)) (or $x14215 $x79358) (or $x1091 $x48312 (<= (+ ?x503 S_3) (- 5.0))) (or $x14215 (<= (+ ?x11301 ?x3158 ?x24261 ?x2949 ?x3410 (* (- 1.0) S_1)) 0.0)) (or (<= (+ ?x503 S_3) (- 5.0)) $x28483) (or $x1091 $x45053 $x441897 $x443600) (or $x1720 (<= (+ (* (- (/ 1.0 3.0)) A_4) ?x5349 ?x5353 ?x5348 ?x536 ?x13919) 0.0)) (or $x1720 $x104751) (or $x14215 (<= (+ A_4 ?x2672 A_2 ?x9110 ?x1247 ?x3410) 0.0)) (or $x1097 $x3360 $x79358) (or $x1097 $x15346 $x53463 $x444508) $x633198 (or $x4178 $x15677 $x53463 $x444508) $x641061 (or $x1097 $x33823 $x41514 $x444508) (or $x1097 $x3360 (<= (+ ?x1138 ?x3410 ?x1161 L_0) 0.0)) $x559654 (or $x56 $x48992) (or $x1720 $x66599) $x1111055 (or $x1091 $x1097 $x440982 $x442065 $x443600) (or $x644 $x1091 $x2964 $x32210 $x89611) (or $x644 $x1091 $x12153 $x24699) (or $x1091 $x30538 $x44933 $x438070 $x444020) (or $x14215 (<= (+ ?x2672 ?x3141 ?x24261 ?x1247 ?x3401) 0.0)) $x555601 (or $x1097 $x4170 $x33839 $x444508) $x630559 $x478542 (or $x1097 (<= (+ ?x483 ?x1666 ?x491 A_1 S_5 ?x3410 ?x614) 0.0) $x79358) (or $x1097 $x2628 $x4170 $x9432 $x444508) (or $x1097 (<= (+ ?x1666 ?x3154 ?x1246 S_5 ?x3401 ?x1287) 0.0) $x33839 $x444336) (or $x1720 $x75048) (<= (+ ?x479 A_2 S_5 ?x631 ?x514) (- 5.0)) (or $x56 (<= (+ A_4 ?x479 ?x491 ?x1118 ?x1760 S_5 B ?x1766) 0.0)) (or $x644 $x1091 $x12153 $x40695) (or $x56 $x71369) (or $x1720 (<= (+ ?x35592 ?x5339 ?x5353 ?x5348 ?x536 ?x13919) 0.0)) (or $x1097 $x15346 $x15606 $x82939 $x444508) $x1098205 (or $x1091 $x1103 $x441069 $x443247 $x461903) (or $x1103 (<= (+ ?x487 L_1 S_4 ?x525 S_1) 0.0)) (or $x1091 $x32083 $x57853 $x438058 $x444016) $x541935 (or $x385 $x1091 $x29275 $x32224 $x91425) (or $x385 $x1091 $x1734 $x30355 $x89708) (or $x28483 $x40695) (or $x24699 $x28483) (or $x1091 $x24699 $x77554 $x436634 $x442296) $x596499 (or $x1091 $x45053 $x441069 $x443123) (or $x1091 $x32222 $x32475 $x89708 $x451043) $x1083100 $x545581 $x483159 (or $x453 $x1091 $x12153 $x44917 $x48312) (or $x644 $x438016 $x450780) (or $x1734 $x6203 $x45053) (or $x1091 $x26718 $x30355 $x32056 $x32516 $x44963 $x55686 $x111395) (or $x1091 $x30538 $x45053 $x443123) (or $x1097 $x3360 (<= (+ ?x483 L_1 S_5 ?x514 S_2) 0.0)) $x320444 (or $x1097 $x11218 $x82384 $x444508) $x1083219 (or $x1720 (<= (+ ?x35289 ?x35592 ?x5333 ?x5349 ?x5353 ?x5360 ?x536 ?x13919) 0.0)) (or $x1097 $x4170 $x5591 $x82384) (or $x1091 $x15114 $x61814 $x102123 $x115709 $x138502 $x455322) (or $x1091 $x45053 $x441897 $x443123) (or $x1097 $x5591 $x15346 $x38829) $x486844 (or $x1103 (<= (+ (* (- (/ 1.0 3.0)) A_4) ?x5339 ?x5353 ?x5348 ?x525 ?x5355) 0.0)) (or $x28483 $x118457) $x540395 (or $x1091 $x1734 $x32083 $x44933 $x57853 $x438058) $x543703 $x551411 (or $x1097 $x5591 $x11218 $x82384) (or $x1091 $x32083 $x32522 $x44933 $x57853 $x438058) (or $x1097 $x4170 $x82192 $x444508) (or $x56 (<= (+ ?x483 A_3 ?x29628 S_5 ?x11504 ?x914 ?x2007) 0.0)) (or $x1097 $x9007 $x11574 $x12375 $x55992 $x131971) $x520230 (or $x1097 $x15346 $x82192 $x444508) (or $x1091 $x107025 (<= (+ ?x503 S_3) (- 5.0))) (or $x1091 $x15158 $x30538 $x62698 $x64916 $x65329 $x448149) $x549374 $x1087785 (or $x1103 (<= (+ ?x35289 ?x35592 ?x5353 ?x5348 ?x525 ?x5355) 0.0)) $x616677 $x523840 (or $x14215 (<= (+ ?x11301 ?x3158 ?x1138 ?x24261 ?x2949 ?x3410 L_0) 0.0)) $x537056 (or $x14215 (<= (+ ?x2672 ?x3141 ?x9110 ?x1247 ?x514 ?x536) 0.0)) (or $x644 $x1091 $x441897 $x450780) $x533106 (or $x1097 $x4170 $x34746 $x91404 $x444508) $x511082 $x510484 $x1069628 $x509622 (or $x5591 $x9007 $x213792) (or $x1097 $x5591 $x15346 $x213792) $x1076657 (or $x1091 $x12153 $x40695 $x107025) $x1084995 (or $x1091 $x12153 $x24699 $x107025) (or $x438016 $x440982 $x446483 $x464443 $x466177) (or $x1091 $x12153 $x24833 $x107025) $x495650 (or $x1097 $x11218 $x11574 $x55992 $x438322 $x471871) (or $x4170 $x4178 $x213792 $x420925) (or $x4178 $x15677 $x213792 $x420925) (or $x1091 $x12153 $x24821 $x107025) (or $x24821 $x28483) (or $x1091 $x24821 $x48312 $x455322) (or $x1091 $x24821 $x32475 $x436634) (or $x1091 $x414495 $x440982 $x441897 $x446483 $x464443 $x466177) (or $x1091 $x441897 $x446483 $x446571 $x450225 $x464443 $x466177) $x529087 $x496282 (or $x1091 $x77554 $x442296 (<= (+ ?x503 S_3) (- 5.0))) (or $x1091 $x15158 $x105825 $x121597 $x138491 $x438070) (or $x644 $x32222 $x37688 $x89708 $x441239) (or $x1091 $x1097 $x1103 $x107025 $x443247) (or $x4178 $x15677 $x34746 $x91404 $x444508) (or $x1720 (<= (+ ?x57043 ?x92526 ?x20568 ?x19069 ?x536 ?x44323) 0.0)) (or $x2964 $x15158 $x32469 $x442067) $x1076465 (or $x1091 $x15158 $x64916 $x105825 $x448149 $x455322) (or $x1091 $x414495 $x441897 $x443247 $x461903) (or $x1097 $x11218 $x11574 $x12074 $x55992 $x131971) (or $x14215 $x195606) (or $x1091 $x24699 $x48312 $x455322) (or $x385 $x1091 $x18881 $x89708 $x451043) (or $x1097 $x3360 $x195606) (or $x1097 $x5598 $x37970 $x438070) $x1094632 (or $x644 $x18881 $x37688 $x89708 $x451043) $x1087596 $x501258 (or $x1091 $x12153 $x40695 $x67204 (not $x442296)) (or $x1091 $x12153 $x40695 $x77554 $x442296) (or $x1091 $x15158 $x30538 $x121597 $x138491 $x446571 $x455322) (or $x1097 $x15606 $x82939 $x438322 (not $x456095) $x471871) (or $x644 $x1091 $x32222 $x89708 $x441239) (or $x1091 $x12153 $x24699 $x77554 $x420925) (or $x1091 $x1720 $x12153 $x24821 $x77554) (or $x1091 $x12153 $x40695 $x48312) (or $x1091 $x12153 $x24833 $x67204 $x77554) (or $x1091 $x12153 $x24695 $x48312) (or $x385 $x1091 $x18881 $x40697 $x451043) $x606012 (or $x1091 $x12153 $x24699 $x48312) (or $x385 $x1091 $x83029 $x89611 $x455322) $x627236 (or $x1091 $x30538 $x440982 $x442065 $x444020) (or $x1091 $x441897 $x442065 $x443600 $x450225) (or $x1091 $x24699 $x77554 $x442296 $x455322) (or $x1091 $x12153 $x24821 $x32475) (or $x1091 $x12153 $x24695 $x67204 $x77554) (or $x1091 $x12153 $x24821 $x48312) $x1077433 $x682 $x39 (<= (+ ?x1138 S_0 L_0) 0.0) (<= (+ ?x487 L_1 S_3) 0.0) (<= (+ ?x491 L_1 S_2) 0.0) (<= (+ (* (- 1.0) A_1) L_1 S_1) 0.0) (<= (+ ?x483 L_1 S_4) 0.0) (<= (+ ?x479 L_1 S_5) 0.0)))))))))))))))))))))))))))))))))))))))))))))))))))))))))))))))))))))))))))))))))))))))))))))))))))))))))))))))))))))))))))))))))))))))))))))))))))))))))))))))))))))))))))))))))))))))))))))))))))))))))))))))))))))))))))))))))))))))))))))))))))))))))))))))))))))))))))))))))))))))))))))))))))))))))))))))))))))))))))))))))))))))))))))))))))))))))))))))))))))))))
(check-sat)
